rectOffsets = 
    [|0,0,3,3|0,0,3,3|0,0,3,4|0,0,4,3|0,0,3,5|0,0,5,3|0,0,3,6|0,0,6,3|0,0,3,7|0,0,7,3|0,0,3,8|0,0,8,3|0,0,3,9|0,0,9,3|0,0,3,10|0,0,10,3|0,0,3,11|0,0,11,3|0,0,3,17|0,0,17,3|0,0,4,3|0,0,3,4|0,0,4,9|0,0,9,4|0,0,4,11|0,0,11,4|0,0,4,17|0,0,17,4|];

shape = array1d(1..28, [{1}, {2}, {3}, {4}, {5}, {6}, {7}, {8}, {9}, {10},
    {11}, {12}, {13}, {14}, {15}, {16}, {17}, {18}, {19}, {20}, {21},
    {22}, {23}, {24}, {25}, {26}, {27}, {28}]);

validshapes = array1d(1..14, [{1,2}, {3,4}, {5,6}, {7,8}, {9,10}, {11,12}, {13,14},
    {15,16}, {17,18}, {19,20}, {21,22}, {23,24}, {25,26}, {27,28}]);

dx = array1d(1..14, [3, 3, 3, 3, 3, 3, 3, 3, 3, 3, 4, 4, 4, 4]);

dy = array1d(1..14, [3, 4, 5, 6, 7, 8, 9, 10, 11, 17, 3, 9, 11, 17]);

w = 20;

n = 14;

o = 28;

